<number of tasks>
11
<cycle time>
62
<order strength>
0.000
<task times>
1 4
2 38
3 45
4 12
5 10
6 8
7 12
8 10
9 2
10 10
11 34
<precedence relations>
1,4
2,4
2,5
3,11
4,6
5,7
6,8
7,9
8,10
9,10
10,11
<end>